165	32	4	72	
12	12	12	12

0	0	0	0	0	0	3	1	2	3
1	0	0	3	0	3	3	4	5	24
2	0	9	9	4	2	3	9	12	17
3	3	1	0	0	9	3	6	7	8
4	0	5	1	9	6	3	8	9	13
5	0	0	0	9	1	3	9	15	21
6	5	0	1	4	10	3	10	11	19
7	6	0	0	9	9	3	13	14	24
8	0	9	2	0	9	3	17	18	25
9	10	6	0	8	10	3	11	20	26
10	0	0	4	0	4	3	12	14	17
11	4	3	0	6	8	2	14	28
12	0	8	7	0	10	3	13	16	18
13	1	0	10	0	3	2	22	27
14	0	9	1	8	9	1	29
15	0	0	6	5	10	2	19	23
16	0	8	2	6	4	3	22	24	28
17	6	6	0	0	1	2	21	22
18	2	0	0	0	2	2	20	21
19	0	4	4	0	9	3	20	25	26
20	2	0	8	0	1	1	27
21	7	0	0	0	4	3	23	26	29
22	0	0	6	0	10	2	23	29
23	0	0	0	9	5	1	30
24	6	7	0	0	9	1	25
25	8	0	9	4	1	1	30
26	0	0	0	9	2	1	27
27	0	0	10	0	1	2	28	30
28	1	0	6	0	7	1	31
29	0	10	2	8	1	1	31
30	6	0	2	9	5	1	31
31	0	0	0	0	0	0
